
Gurobi 6.5.2 (linux64) logging started Mon Dec 12 22:15:21 2016


Gurobi 6.5.2 (linux64) logging started Mon Dec 12 22:15:21 2016

Optimize a model with 101 rows, 663 columns and 1597 nonzeros
Coefficient statistics:
  Matrix range    [1e+00, 2e+00]
  Objective range [1e+00, 1e+02]
  Bounds range    [1e+00, 1e+00]
  RHS range       [1e+00, 1e+00]
Presolve removed 32 rows and 2 columns
Presolve time: 0.00s
Presolved: 69 rows, 661 columns, 1380 nonzeros
Variable types: 0 continuous, 661 integer (661 binary)

Root relaxation: objective 5.965000e+02, 52 iterations, 0.00 seconds

    Nodes    |    Current Node    |     Objective Bounds      |     Work
 Expl Unexpl |  Obj  Depth IntInf | Incumbent    BestBd   Gap | It/Node Time

     0     0  596.50000    0   22          -  596.50000      -     -    0s
     0     0  654.70000    0   11          -  654.70000      -     -    0s
     0     0  660.00000    0   12          -  660.00000      -     -    0s
     0     0  660.00000    0   16          -  660.00000      -     -    0s
     0     0  660.00000    0   16          -  660.00000      -     -    0s
     0     2  660.00000    0   22          -  660.00000      -     -    0s
H 1177   959                    1353.0000000  661.00000  51.1%   3.8    0s
H 1177   911                    1003.0000000  661.00000  34.1%   3.8    0s
H 1233   902                     863.0000000  683.09610  20.8%   4.1    3s
H 1245   864                     841.0000000  688.09677  18.2%   4.1    4s
  1251   868  711.00000   56   67  841.00000  690.50049  17.9%   4.1    5s
H 1251   824                     790.0000000  691.23229  12.5%   4.1    5s
H 1269   793                     733.0000000  692.50000  5.53%   4.0    6s
H 1275   758                     721.0000000  692.50000  3.95%   4.7    6s
H 1287   728                     707.0000000  692.50000  2.05%   4.8    7s
H 1315   710                     703.0000000  694.31439  1.24%   4.9    7s

Cutting planes:
  Gomory: 22
  Cover: 38
  MIR: 2
  Flow cover: 16
  Zero half: 21
  Lazy constraints: 86

Explored 2473 nodes (14038 simplex iterations) in 9.01 seconds
Thread count was 8 (of 8 available processors)

Optimal solution found (tolerance 1.00e-04)
Best objective 7.030000000000e+02, best bound 7.030000000000e+02, gap 0.0%
